RT is False
Default write of storage_offers_DA.csv just to have a file (but constraint should be inactive)
Reading model...
...model read.
creating competitive generators file...
...competitive generators recorded.
Loading data...
.. day-ahead data with real-time VRE data read.
Compiling instance...
...instance created.
Creating Offer Mitigation (model will solve as dispatch if TRUE)...
NOTE: storage offers will not be mitigated
...storage offer mitigation file created
Converting model to MPEC...
...converted
NOTE: initial MIP solve with only storage competitive to get feasible solution
Solving...

Welcome to IBM(R) ILOG(R) CPLEX(R) Interactive Optimizer 12.9.0.0
  with Simplex, Mixed Integer & Barrier Optimizers
5725-A06 5725-A29 5724-Y48 5724-Y49 5724-Y54 5724-Y55 5655-Y21
Copyright IBM Corp. 1988, 2019.  All Rights Reserved.

Type 'help' for a list of available commands.
Type 'help' followed by a command name for more
information on commands.

CPLEX> Logfile 'cplex.log' closed.
Logfile 'C:\Users\llavin\Desktop\test919\logs\tmpnm2h71ez.cplex.log' open.
CPLEX> New value for parallel optimization mode: -1
CPLEX> New value for mixed integer optimality gap tolerance: 0.01
CPLEX> New value for integrality tolerance: 1e-09
CPLEX> New value for feasibility tolerance: 0.01
CPLEX> New value for deterministic time limit in ticks: 100000
CPLEX> Problem 'C:\Users\llavin\Desktop\test919\logs\tmppd3ost9l.pyomo.lp' read.
Read time = 0.22 sec. (13.86 ticks)
CPLEX> Problem name         : C:\Users\llavin\Desktop\test919\logs\tmppd3ost9l.pyomo.lp
Objective sense      : Maximize
Variables            :   53321  [Nneg: 1,  Box: 21806,  Free: 4416,
                                 Binary: 27098]
Objective nonzeros   :    9029
Linear constraints   :  122164  [Less: 40983,  Greater: 58612,  Equal: 22569]
  Nonzeros           :  288457
  RHS nonzeros       :   66982

Variables            : Min LB: -5000.000        Max UB: 1000000.       
Objective nonzeros   : Min   : 0.1750000        Max   : 2500.000       
Linear constraints   :
  Nonzeros           : Min   : 0.1750000        Max   : 1000000.       
  RHS nonzeros       : Min   : 0.1750000        Max   : 1000000.       
CPLEX> CPXPARAM_Parallel                                -1
CPXPARAM_Simplex_Tolerances_Feasibility          0.01
CPXPARAM_DetTimeLimit                            100000
CPXPARAM_MIP_Tolerances_MIPGap                   0.01
CPXPARAM_MIP_Tolerances_Integrality              1.0000000000000001e-09
Tried aggregator 3 times.
MIP Presolve eliminated 88102 rows and 18982 columns.
MIP Presolve added 3354 rows and 0 columns.
MIP Presolve modified 24506 coefficients.
Aggregator did 12828 substitutions.
Reduced MIP has 24588 rows, 20955 columns, and 68873 nonzeros.
Reduced MIP has 8293 binaries, 0 generals, 0 SOSs, and 0 indicators.
Presolve time = 0.30 sec. (173.86 ticks)
Probing fixed 431 vars, tightened 2939 bounds.
Probing time = 1.27 sec. (910.88 ticks)
Tried aggregator 2 times.
MIP Presolve eliminated 960 rows and 863 columns.
MIP Presolve modified 2211 coefficients.
Aggregator did 59 substitutions.
Reduced MIP has 23569 rows, 20033 columns, and 65908 nonzeros.
Reduced MIP has 7862 binaries, 0 generals, 0 SOSs, and 0 indicators.
Presolve time = 0.09 sec. (66.28 ticks)
Probing time = 0.03 sec. (15.33 ticks)
Clique table members: 6264.
MIP emphasis: balance optimality and feasibility.
MIP search method: dynamic search.
Parallel mode: opportunistic, using up to 32 threads.
Root relaxation solution time = 0.34 sec. (470.44 ticks)

        Nodes                                         Cuts/
   Node  Left     Objective  IInf  Best Integer    Best Bound    ItCnt     Gap

      0     0      -46.9553   696                    -46.9553     3046         
      0     0      -46.9553    12                     Cuts: 6     3052         
      0     0      -51.6388     8                    Cuts: 11     3059         
      0     0      -51.6388     8                 ZeroHalf: 1     3060         
      0     8    infeasible                         -108.5929     3209         
Elapsed time = 7.25 sec. (4272.32 ticks, tree = 0.02 MB, solutions = 0)
    545   147   -30580.2253     1                   -108.5929     5139         
    969   463  -147565.8084    14                   -108.5929    16222         
*  1024   508      integral     0    -9863.7927     -108.5929    18855   98.90%
   1312   326    -9516.1893     4    -9863.7927     -108.5929    29123   98.90%
   1583   334    -2600.3517   210    -9863.7927     -108.5929    28201   98.90%
   1842   466    -9343.8151     4    -9863.7927     -108.5929    43993   98.90%
   2092   402    -4449.7240     1    -9863.7927     -108.5929    43788   98.90%
   2416   575     -381.2567   243    -9863.7927     -108.5929    62965   98.90%
   2699   837     -381.2567   216    -9863.7927     -108.5929    66213   98.90%
   3031   836        cutoff          -9863.7927     -108.5929    66900   98.90%
   4408  1291    -2620.8700   110    -9863.7927     -108.5929    69623   98.90%
Elapsed time = 19.58 sec. (7378.11 ticks, tree = 15.61 MB, solutions = 2)
   5736  1814    -6921.8577     6     -126.5034     -108.5929    71558   14.16%
   6786   980     -144.6232   110     -126.5034     -108.5929    73113   14.16%
   7347    15     -108.5929     1     -126.5034     -108.5929    75152   14.16%
   7738    34     -109.4904     1     -126.5034     -108.5929    75331   14.16%
   8044    37     -109.4904     1     -126.5034     -108.5929    75404   14.16%
   8255    39     -109.4904     1     -126.5034     -108.5929    75412   14.16%
*  8277     0      integral     0     -126.5034                  79769     --- 

Cover cuts applied:  2
Implied bound cuts applied:  3
Flow cuts applied:  95
Zero-half cuts applied:  1
Gomory fractional cuts applied:  11

Root node processing (before b&c):
  Real time             =    6.50 sec. (4270.16 ticks)
Parallel b&c, 32 threads:
  Real time             =   26.06 sec. (10211.54 ticks)
  Sync time (average)   =    2.77 sec.
  Wait time (average)   =    0.00 sec.
                          ------------
Total (root+branch&cut) =   32.56 sec. (14481.71 ticks)

Solution pool: 13 solutions saved.

MIP - Integer optimal solution:  Objective = -1.2650339305e+02
Solution time =   32.56 sec.  Iterations = 79769  Nodes = 8277
Deterministic time = 14481.86 ticks  (444.73 ticks/sec)

CPLEX> Incumbent solution written to file 'C:\Users\llavin\Desktop\test919\logs\tmp8dvuisla.cplex.sol'.
CPLEX> NOTE: no warmstart specified for MIP iteration, default behavior is true
NOTE: resolving with all competitive generators using storage-only solution to warmstart
Solving...

Welcome to IBM(R) ILOG(R) CPLEX(R) Interactive Optimizer 12.9.0.0
  with Simplex, Mixed Integer & Barrier Optimizers
5725-A06 5725-A29 5724-Y48 5724-Y49 5724-Y54 5724-Y55 5655-Y21
Copyright IBM Corp. 1988, 2019.  All Rights Reserved.

Type 'help' for a list of available commands.
Type 'help' followed by a command name for more
information on commands.

CPLEX> Logfile 'cplex.log' closed.
Logfile 'C:\Users\llavin\Desktop\test919\logs\tmpw5uebmv2.cplex.log' open.
CPLEX> New value for parallel optimization mode: -1
CPLEX> New value for mixed integer optimality gap tolerance: 0.01
CPLEX> New value for integrality tolerance: 1e-09
CPLEX> New value for feasibility tolerance: 0.01
CPLEX> New value for deterministic time limit in ticks: 100000
CPLEX> Problem 'C:\Users\llavin\Desktop\test919\logs\tmpplbgw0d2.pyomo.lp' read.
Read time = 0.23 sec. (13.88 ticks)
CPLEX> MIP start file 'C:\Users\llavin\Desktop\test919\logs\tmp33braznz.cplex.mst' read.
CPLEX> Problem name         : C:\Users\llavin\Desktop\test919\logs\tmpplbgw0d2.pyomo.lp
Objective sense      : Maximize
Variables            :   54041  [Nneg: 1,  Box: 22526,  Free: 4416,
                                 Binary: 27098]
Objective nonzeros   :    9749
Linear constraints   :  122164  [Less: 40983,  Greater: 58612,  Equal: 22569]
  Nonzeros           :  288457
  RHS nonzeros       :   66982

Variables            : Min LB: -5000.000        Max UB: 1000000.       
Objective nonzeros   : Min   : 0.1750000        Max   : 2500.000       
Linear constraints   :
  Nonzeros           : Min   : 0.1750000        Max   : 1000000.       
  RHS nonzeros       : Min   : 0.1750000        Max   : 1000000.       
CPLEX> CPXPARAM_Parallel                                -1
CPXPARAM_Simplex_Tolerances_Feasibility          0.01
CPXPARAM_DetTimeLimit                            100000
CPXPARAM_MIP_Tolerances_MIPGap                   0.01
CPXPARAM_MIP_Tolerances_Integrality              1.0000000000000001e-09
Warning:  No solution found from 1 MIP starts.
Retaining values of one MIP start for possible repair.
Tried aggregator 3 times.
MIP Presolve eliminated 88102 rows and 19702 columns.
MIP Presolve added 3354 rows and 0 columns.
MIP Presolve modified 24506 coefficients.
Aggregator did 12828 substitutions.
Reduced MIP has 24588 rows, 20955 columns, and 68873 nonzeros.
Reduced MIP has 8293 binaries, 0 generals, 0 SOSs, and 0 indicators.
Presolve time = 0.28 sec. (174.22 ticks)
Probing fixed 431 vars, tightened 2939 bounds.
Probing time = 1.28 sec. (910.88 ticks)
Tried aggregator 2 times.
MIP Presolve eliminated 960 rows and 863 columns.
MIP Presolve modified 2211 coefficients.
Aggregator did 59 substitutions.
Reduced MIP has 23569 rows, 20033 columns, and 65908 nonzeros.
Reduced MIP has 7862 binaries, 0 generals, 0 SOSs, and 0 indicators.
Presolve time = 0.11 sec. (66.28 ticks)
Probing time = 0.05 sec. (15.33 ticks)
Clique table members: 6264.
MIP emphasis: balance optimality and feasibility.
MIP search method: dynamic search.
Parallel mode: opportunistic, using up to 32 threads.
Root relaxation solution time = 0.34 sec. (470.44 ticks)

        Nodes                                         Cuts/
   Node  Left     Objective  IInf  Best Integer    Best Bound    ItCnt     Gap

      0     0      -46.9553   696                    -46.9553     3046         
      0     0      -46.9553    12                     Cuts: 6     3052         
      0     0      -51.6388     8                    Cuts: 11     3059         
      0     0      -51.6388     8                 ZeroHalf: 1     3060         
Repair heuristic found nothing.
      0    11    infeasible                         -108.5929     3219         
Elapsed time = 7.59 sec. (4317.25 ticks, tree = 0.02 MB, solutions = 0)
*   331   154      integral     0    -6937.9641     -108.5929     5182   98.43%
    391   104    -4448.0094     1    -6937.9641     -108.5929     4812   98.43%
    756   110    -3959.3870    11     -273.6905     -108.5929    15764   60.32%
   1009    28        cutoff           -273.6905     -108.5929    33812   60.32%
   1321    28        cutoff           -273.6905     -108.5929    33927   60.32%
   1667    39     -137.5544   175     -273.6905     -108.5929    37171   60.32%
   2039    65     -126.5034   193     -273.6905     -108.5929    39333   60.32%
   2403    81     -126.5034   194     -273.6905     -108.5929    39835   60.32%
   2893   150     -126.5034   129     -273.6905     -108.5929    41242   60.32%
   3482   124     -147.8870   171     -273.6905     -108.5929    40967   60.32%
*  5315   437      integral     0     -126.5034     -108.5929    43574   14.16%
   6304   480     -137.5544    43     -126.5034     -109.2967    43428   13.60%
Elapsed time = 23.61 sec. (7422.01 ticks, tree = 2.53 MB, solutions = 13)
   6871    14     -109.4904     3     -126.5034     -109.4904    47827   13.45%
   7177    30     -109.4904     1     -126.5034     -109.4904    47959   13.45%
   7445    31        cutoff           -126.5034     -109.4904    48058   13.45%
   7719    84     -109.4904     1     -126.5034     -109.4904    48476   13.45%
   7976    90        cutoff           -126.5034     -109.4904    48543   13.45%
   8221    92     -109.4904     1     -126.5034     -109.4904    48569   13.45%
   8472   123     -109.4904     1     -126.5034     -109.4904    48893   13.45%
   8692   117     -109.4904     1     -126.5034     -109.4904    48822   13.45%
   8888   140        cutoff           -126.5034     -109.4904    49029   13.45%
   9089   183     -109.4904     1     -126.5034     -109.4904    49188   13.45%
Elapsed time = 40.08 sec. (16988.18 ticks, tree = 0.63 MB, solutions = 13)
   9265   231        cutoff           -126.5034     -109.4904    49358   13.45%
   9447   211        cutoff           -126.5034     -109.4904    49279   13.45%
   9625   234     -109.4904     1     -126.5034     -109.4904    49358   13.45%
   9799   284        cutoff           -126.5034     -109.4904    49560   13.45%
   9950   360     -109.4904     1     -126.5034     -109.4904    49880   13.45%
  10120   319        cutoff           -126.5034     -109.4904    49712   13.45%
  10298   381     -109.4904     1     -126.5034     -109.4904    49968   13.45%
  10452   388     -109.4904     3     -126.5034     -109.4904    50003   13.45%
  10608   394        cutoff           -126.5034     -109.4904    50039   13.45%
  10732   467        cutoff           -126.5034     -109.4904    50425   13.45%
Elapsed time = 50.09 sec. (26561.23 ticks, tree = 1.96 MB, solutions = 13)
  10828   461        cutoff           -126.5034     -109.4904    50401   13.45%
  10856   476     -109.4904     1     -126.5034     -109.4904    50457   13.45%
* 10860     0      integral     0     -126.5034                  54121     --- 

Implied bound cuts applied:  5
Flow cuts applied:  79
Zero-half cuts applied:  1
Gomory fractional cuts applied:  7

Root node processing (before b&c):
  Real time             =    6.81 sec. (4315.09 ticks)
Parallel b&c, 32 threads:
  Real time             =   45.44 sec. (25704.07 ticks)
  Sync time (average)   =    3.61 sec.
  Wait time (average)   =    0.00 sec.
                          ------------
Total (root+branch&cut) =   52.25 sec. (30019.16 ticks)

Solution pool: 13 solutions saved.

MIP - Integer optimal solution:  Objective = -1.2650339305e+02
Solution time =   52.27 sec.  Iterations = 54121  Nodes = 10860
Deterministic time = 30019.31 ticks  (574.36 ticks/sec)

CPLEX> Incumbent solution written to file 'C:\Users\llavin\Desktop\test919\logs\tmpf799lc1x.cplex.sol'.
CPLEX> Exporting results... 
